(set-logic QF_S)
(declare-fun var_0xINPUT_92577 () String)
(assert (and (= (len var_0xINPUT_92577) 0) (= (len var_0xINPUT_92577) 0) (not (= var_0xINPUT_92577 "Example:")) (not (= var_0xINPUT_92577 "fB9De3KAY9"))))
(check-sat var_0xINPUT_92577)